p cnf 50 105
6 0
7 0
-8 0
-9 0
10 0
-11 0
-12 0
13 0
-14 0
-15 0
-1 -2 6 0
-1 -3 7 0
-1 -4 8 0
-1 -5 9 0
-2 -1 6 0
-2 -3 10 0
-2 -4 11 0
-2 -5 12 0
-3 -1 7 0
-3 -2 10 0
-3 -4 13 0
-3 -5 14 0
-4 -1 8 0
-4 -2 11 0
-4 -3 13 0
-4 -5 15 0
-5 -1 9 0
-5 -2 12 0
-5 -3 14 0
-5 -4 15 0
-26 31 0
-27 32 0
-28 33 0
-29 34 0
-30 35 0
-31 36 0
-32 37 0
-33 38 0
-34 39 0
-35 40 0
-36 41 0
-37 42 0
-38 43 0
-39 44 0
-40 45 0
-41 46 0
-42 47 0
-43 48 0
-44 49 0
-45 50 0
26 -1 0
-26 1 0
-2 -26 32 0
-2 -27 33 0
-2 -28 34 0
-2 -29 35 0
-3 -31 37 0
-3 -32 38 0
-3 -33 39 0
-3 -34 40 0
-4 -36 42 0
-4 -37 43 0
-4 -38 44 0
-4 -39 45 0
-5 -41 47 0
-5 -42 48 0
-5 -43 49 0
-5 -44 50 0
27 -32 26 0
27 -32 2 0
28 -33 27 0
28 -33 2 0
29 -34 28 0
29 -34 2 0
30 -35 29 0
30 -35 2 0
32 -37 31 0
32 -37 3 0
33 -38 32 0
33 -38 3 0
34 -39 33 0
34 -39 3 0
35 -40 34 0
35 -40 3 0
37 -42 36 0
37 -42 4 0
38 -43 37 0
38 -43 4 0
39 -44 38 0
39 -44 4 0
40 -45 39 0
40 -45 4 0
42 -47 41 0
42 -47 5 0
43 -48 42 0
43 -48 5 0
44 -49 43 0
44 -49 5 0
45 -50 44 0
45 -50 5 0
-27 0
-28 0
-29 0
-30 0
48 0
